100
32
16
12
22
6
14
4
21
5
10
6
19
2
19
22
2
19
2
18
13
17
3
2
1
2
21
24
27
3
4
29
11
19
30
3
1
21
4
21
27
4
8
2
6
9
1
24
4
11
12
22
29
18
1
26
1
4
22
20
2
25
8
7
27
3
1
1
6
25
10
2
23
7
23
7
7
15
29
13
18
10
20
4
10
26
10
28
4
5
13
13
7
31
12
23
14
5
17
3
8
12